c File: data_files/evolved_graphs/g0556.col
c
c Auto generated graph
c
p edge 100 1742
e 1 4
e 1 5
e 1 8
e 1 9
e 1 15
e 1 19
e 1 22
e 1 23
e 1 24
e 1 26
e 1 27
e 1 31
e 1 35
e 1 39
e 1 41
e 1 43
e 1 54
e 1 59
e 1 60
e 1 61
e 1 69
e 1 71
e 1 72
e 1 79
e 1 80
e 1 94
e 1 98
e 2 17
e 2 21
e 2 23
e 2 24
e 2 25
e 2 26
e 2 27
e 2 28
e 2 30
e 2 32
e 2 34
e 2 37
e 2 39
e 2 40
e 2 47
e 2 51
e 2 52
e 2 55
e 2 56
e 2 57
e 2 60
e 2 69
e 2 72
e 2 73
e 2 76
e 2 81
e 2 82
e 2 89
e 2 90
e 2 95
e 2 96
e 2 97
e 3 5
e 3 6
e 3 9
e 3 12
e 3 13
e 3 15
e 3 16
e 3 17
e 3 18
e 3 19
e 3 24
e 3 25
e 3 27
e 3 36
e 3 39
e 3 40
e 3 41
e 3 42
e 3 43
e 3 44
e 3 45
e 3 46
e 3 47
e 3 48
e 3 61
e 3 65
e 3 71
e 3 72
e 3 73
e 3 74
e 3 77
e 3 81
e 3 82
e 3 84
e 3 87
e 3 88
e 3 90
e 3 91
e 3 92
e 3 94
e 3 96
e 3 99
e 3 100
e 4 5
e 4 7
e 4 10
e 4 11
e 4 13
e 4 14
e 4 15
e 4 20
e 4 21
e 4 22
e 4 23
e 4 25
e 4 26
e 4 27
e 4 31
e 4 37
e 4 41
e 4 43
e 4 46
e 4 47
e 4 48
e 4 53
e 4 55
e 4 57
e 4 59
e 4 62
e 4 68
e 4 70
e 4 74
e 4 76
e 4 77
e 4 80
e 4 83
e 4 84
e 4 87
e 4 90
e 4 92
e 4 96
e 5 8
e 5 12
e 5 15
e 5 16
e 5 17
e 5 18
e 5 30
e 5 32
e 5 33
e 5 40
e 5 44
e 5 45
e 5 46
e 5 48
e 5 53
e 5 58
e 5 60
e 5 61
e 5 64
e 5 68
e 5 71
e 5 72
e 5 75
e 5 76
e 5 77
e 5 80
e 5 81
e 5 82
e 5 84
e 5 86
e 5 89
e 5 91
e 5 92
e 5 93
e 5 97
e 5 98
e 6 7
e 6 8
e 6 12
e 6 18
e 6 21
e 6 24
e 6 26
e 6 28
e 6 29
e 6 30
e 6 33
e 6 38
e 6 39
e 6 41
e 6 45
e 6 48
e 6 53
e 6 60
e 6 65
e 6 66
e 6 74
e 6 78
e 6 82
e 6 84
e 6 89
e 6 90
e 6 91
e 6 98
e 6 100
e 7 12
e 7 13
e 7 14
e 7 15
e 7 16
e 7 21
e 7 22
e 7 24
e 7 30
e 7 32
e 7 34
e 7 35
e 7 37
e 7 43
e 7 45
e 7 48
e 7 50
e 7 51
e 7 52
e 7 54
e 7 55
e 7 62
e 7 63
e 7 64
e 7 69
e 7 72
e 7 73
e 7 74
e 7 75
e 7 76
e 7 77
e 7 82
e 7 88
e 7 90
e 7 93
e 7 94
e 7 95
e 7 97
e 8 13
e 8 14
e 8 16
e 8 17
e 8 20
e 8 24
e 8 27
e 8 28
e 8 30
e 8 31
e 8 35
e 8 37
e 8 44
e 8 46
e 8 48
e 8 53
e 8 59
e 8 60
e 8 62
e 8 65
e 8 68
e 8 71
e 8 77
e 8 82
e 8 83
e 8 88
e 8 91
e 8 92
e 8 97
e 8 100
e 9 10
e 9 11
e 9 14
e 9 16
e 9 21
e 9 25
e 9 31
e 9 32
e 9 33
e 9 34
e 9 35
e 9 36
e 9 37
e 9 42
e 9 45
e 9 47
e 9 49
e 9 51
e 9 52
e 9 57
e 9 58
e 9 60
e 9 67
e 9 71
e 9 74
e 9 77
e 9 80
e 9 82
e 9 83
e 9 86
e 9 88
e 9 95
e 9 97
e 10 12
e 10 13
e 10 22
e 10 25
e 10 26
e 10 27
e 10 35
e 10 36
e 10 37
e 10 38
e 10 39
e 10 40
e 10 41
e 10 42
e 10 43
e 10 46
e 10 48
e 10 51
e 10 59
e 10 60
e 10 63
e 10 66
e 10 69
e 10 74
e 10 75
e 10 76
e 10 80
e 10 85
e 10 95
e 10 96
e 10 100
e 11 16
e 11 27
e 11 31
e 11 35
e 11 37
e 11 42
e 11 48
e 11 52
e 11 55
e 11 57
e 11 65
e 11 66
e 11 67
e 11 70
e 11 71
e 11 76
e 11 77
e 11 79
e 11 80
e 11 85
e 11 88
e 11 90
e 11 91
e 11 92
e 11 93
e 11 95
e 11 96
e 11 99
e 12 13
e 12 14
e 12 15
e 12 18
e 12 19
e 12 20
e 12 27
e 12 28
e 12 30
e 12 36
e 12 40
e 12 45
e 12 49
e 12 50
e 12 52
e 12 67
e 12 68
e 12 70
e 12 71
e 12 75
e 12 80
e 12 85
e 12 95
e 12 100
e 13 14
e 13 16
e 13 18
e 13 22
e 13 23
e 13 27
e 13 30
e 13 31
e 13 32
e 13 35
e 13 36
e 13 39
e 13 44
e 13 45
e 13 46
e 13 58
e 13 59
e 13 61
e 13 65
e 13 66
e 13 67
e 13 68
e 13 69
e 13 72
e 13 75
e 13 76
e 13 79
e 13 85
e 13 86
e 13 90
e 13 94
e 13 97
e 13 100
e 14 15
e 14 17
e 14 19
e 14 20
e 14 21
e 14 23
e 14 27
e 14 32
e 14 33
e 14 44
e 14 48
e 14 49
e 14 50
e 14 51
e 14 53
e 14 54
e 14 57
e 14 60
e 14 61
e 14 62
e 14 63
e 14 64
e 14 72
e 14 74
e 14 75
e 14 76
e 14 77
e 14 80
e 14 85
e 14 88
e 14 91
e 14 94
e 14 100
e 15 18
e 15 19
e 15 23
e 15 28
e 15 30
e 15 31
e 15 32
e 15 36
e 15 38
e 15 39
e 15 44
e 15 45
e 15 47
e 15 48
e 15 53
e 15 54
e 15 55
e 15 57
e 15 60
e 15 61
e 15 63
e 15 67
e 15 69
e 15 71
e 15 72
e 15 73
e 15 74
e 15 77
e 15 78
e 15 80
e 15 81
e 15 83
e 15 88
e 15 91
e 15 93
e 15 95
e 16 17
e 16 20
e 16 21
e 16 25
e 16 28
e 16 29
e 16 30
e 16 32
e 16 34
e 16 35
e 16 36
e 16 38
e 16 40
e 16 44
e 16 47
e 16 50
e 16 51
e 16 52
e 16 53
e 16 55
e 16 57
e 16 58
e 16 60
e 16 61
e 16 62
e 16 65
e 16 71
e 16 78
e 16 79
e 16 83
e 16 86
e 16 94
e 16 97
e 16 99
e 17 22
e 17 24
e 17 28
e 17 30
e 17 33
e 17 42
e 17 46
e 17 51
e 17 54
e 17 56
e 17 63
e 17 65
e 17 67
e 17 70
e 17 71
e 17 72
e 17 75
e 17 78
e 17 81
e 17 82
e 17 85
e 17 87
e 17 100
e 18 19
e 18 20
e 18 21
e 18 24
e 18 25
e 18 28
e 18 31
e 18 34
e 18 36
e 18 38
e 18 41
e 18 43
e 18 44
e 18 48
e 18 50
e 18 52
e 18 57
e 18 62
e 18 63
e 18 64
e 18 65
e 18 77
e 18 79
e 18 86
e 18 90
e 18 91
e 18 92
e 18 94
e 18 95
e 18 97
e 18 98
e 18 100
e 19 20
e 19 22
e 19 26
e 19 29
e 19 31
e 19 32
e 19 35
e 19 37
e 19 38
e 19 39
e 19 48
e 19 53
e 19 57
e 19 58
e 19 65
e 19 73
e 19 74
e 19 76
e 19 78
e 19 79
e 19 89
e 19 90
e 19 93
e 19 98
e 19 100
e 20 21
e 20 27
e 20 28
e 20 32
e 20 34
e 20 40
e 20 41
e 20 45
e 20 48
e 20 49
e 20 52
e 20 54
e 20 57
e 20 62
e 20 69
e 20 70
e 20 74
e 20 75
e 20 78
e 20 79
e 20 80
e 20 82
e 20 83
e 20 87
e 20 94
e 20 95
e 20 99
e 21 23
e 21 27
e 21 28
e 21 29
e 21 39
e 21 43
e 21 45
e 21 50
e 21 53
e 21 56
e 21 61
e 21 64
e 21 66
e 21 67
e 21 68
e 21 70
e 21 72
e 21 73
e 21 74
e 21 75
e 21 77
e 21 79
e 21 80
e 21 82
e 21 87
e 21 88
e 21 91
e 21 92
e 21 93
e 21 96
e 21 97
e 21 98
e 22 30
e 22 33
e 22 34
e 22 35
e 22 37
e 22 39
e 22 42
e 22 43
e 22 45
e 22 47
e 22 50
e 22 56
e 22 58
e 22 60
e 22 63
e 22 65
e 22 68
e 22 69
e 22 71
e 22 72
e 22 73
e 22 74
e 22 78
e 22 79
e 22 80
e 22 87
e 22 96
e 23 28
e 23 31
e 23 32
e 23 35
e 23 37
e 23 38
e 23 43
e 23 51
e 23 53
e 23 59
e 23 63
e 23 66
e 23 68
e 23 69
e 23 71
e 23 72
e 23 73
e 23 74
e 23 77
e 23 79
e 23 81
e 23 82
e 23 83
e 23 84
e 23 86
e 23 96
e 23 99
e 24 25
e 24 26
e 24 27
e 24 29
e 24 30
e 24 32
e 24 33
e 24 38
e 24 39
e 24 44
e 24 48
e 24 55
e 24 59
e 24 63
e 24 64
e 24 72
e 24 73
e 24 74
e 24 75
e 24 79
e 24 81
e 24 84
e 24 89
e 24 90
e 24 96
e 25 26
e 25 29
e 25 31
e 25 32
e 25 37
e 25 38
e 25 41
e 25 42
e 25 45
e 25 49
e 25 51
e 25 54
e 25 56
e 25 62
e 25 65
e 25 77
e 25 79
e 25 80
e 25 81
e 25 84
e 25 86
e 25 87
e 25 88
e 25 100
e 26 27
e 26 30
e 26 31
e 26 34
e 26 37
e 26 39
e 26 46
e 26 50
e 26 51
e 26 53
e 26 55
e 26 56
e 26 58
e 26 63
e 26 64
e 26 69
e 26 70
e 26 74
e 26 75
e 26 76
e 26 78
e 26 79
e 26 80
e 26 82
e 26 91
e 26 92
e 27 28
e 27 34
e 27 53
e 27 55
e 27 58
e 27 59
e 27 60
e 27 63
e 27 66
e 27 74
e 27 80
e 27 82
e 27 86
e 27 90
e 27 92
e 27 94
e 27 95
e 27 96
e 27 97
e 27 100
e 28 29
e 28 30
e 28 31
e 28 33
e 28 34
e 28 38
e 28 39
e 28 43
e 28 45
e 28 46
e 28 47
e 28 48
e 28 50
e 28 53
e 28 64
e 28 73
e 28 74
e 28 75
e 28 79
e 28 81
e 28 82
e 28 84
e 28 88
e 28 92
e 28 94
e 28 97
e 28 98
e 28 99
e 28 100
e 29 31
e 29 32
e 29 34
e 29 35
e 29 37
e 29 38
e 29 39
e 29 41
e 29 43
e 29 45
e 29 47
e 29 49
e 29 51
e 29 53
e 29 58
e 29 64
e 29 67
e 29 69
e 29 76
e 29 77
e 29 82
e 29 83
e 29 84
e 29 85
e 29 86
e 29 90
e 29 93
e 29 95
e 29 100
e 30 32
e 30 33
e 30 37
e 30 40
e 30 45
e 30 49
e 30 54
e 30 55
e 30 57
e 30 61
e 30 64
e 30 65
e 30 66
e 30 69
e 30 70
e 30 72
e 30 73
e 30 74
e 30 76
e 30 79
e 30 80
e 30 89
e 30 90
e 30 91
e 30 94
e 30 98
e 31 33
e 31 39
e 31 40
e 31 54
e 31 58
e 31 59
e 31 60
e 31 61
e 31 62
e 31 63
e 31 70
e 31 71
e 31 72
e 31 73
e 31 75
e 31 76
e 31 77
e 31 79
e 31 84
e 31 86
e 31 87
e 31 88
e 31 90
e 31 93
e 31 94
e 31 96
e 31 97
e 31 98
e 32 34
e 32 39
e 32 41
e 32 47
e 32 49
e 32 50
e 32 52
e 32 54
e 32 59
e 32 60
e 32 65
e 32 68
e 32 80
e 32 83
e 32 84
e 32 85
e 32 91
e 32 93
e 32 94
e 32 95
e 32 100
e 33 39
e 33 40
e 33 41
e 33 43
e 33 48
e 33 54
e 33 55
e 33 56
e 33 58
e 33 64
e 33 65
e 33 66
e 33 70
e 33 73
e 33 74
e 33 75
e 33 78
e 33 84
e 33 85
e 33 87
e 33 93
e 33 97
e 34 35
e 34 37
e 34 39
e 34 43
e 34 44
e 34 47
e 34 49
e 34 56
e 34 58
e 34 61
e 34 62
e 34 63
e 34 67
e 34 72
e 34 75
e 34 77
e 34 80
e 34 82
e 34 84
e 34 85
e 34 86
e 34 87
e 34 91
e 34 95
e 34 97
e 34 98
e 34 99
e 34 100
e 35 36
e 35 37
e 35 39
e 35 40
e 35 45
e 35 50
e 35 52
e 35 54
e 35 60
e 35 67
e 35 69
e 35 74
e 35 75
e 35 78
e 35 79
e 35 80
e 35 82
e 35 85
e 35 86
e 35 87
e 35 89
e 35 92
e 35 93
e 35 97
e 35 99
e 35 100
e 36 41
e 36 45
e 36 46
e 36 52
e 36 53
e 36 54
e 36 56
e 36 57
e 36 59
e 36 60
e 36 62
e 36 65
e 36 66
e 36 69
e 36 74
e 36 77
e 36 83
e 36 85
e 36 86
e 36 88
e 36 90
e 36 95
e 36 96
e 36 97
e 37 38
e 37 40
e 37 43
e 37 45
e 37 57
e 37 58
e 37 61
e 37 67
e 37 72
e 37 74
e 37 77
e 37 80
e 37 83
e 37 84
e 37 89
e 37 91
e 37 92
e 37 94
e 37 96
e 37 100
e 38 39
e 38 40
e 38 41
e 38 42
e 38 43
e 38 47
e 38 48
e 38 49
e 38 53
e 38 56
e 38 58
e 38 59
e 38 61
e 38 62
e 38 63
e 38 66
e 38 70
e 38 72
e 38 73
e 38 76
e 38 77
e 38 78
e 38 79
e 38 82
e 38 85
e 38 88
e 38 90
e 38 91
e 38 92
e 38 93
e 38 98
e 39 42
e 39 43
e 39 46
e 39 48
e 39 49
e 39 50
e 39 53
e 39 55
e 39 56
e 39 59
e 39 60
e 39 63
e 39 64
e 39 66
e 39 70
e 39 73
e 39 80
e 39 82
e 39 85
e 39 88
e 39 92
e 39 94
e 39 95
e 39 96
e 39 100
e 40 43
e 40 47
e 40 50
e 40 54
e 40 56
e 40 62
e 40 65
e 40 68
e 40 70
e 40 74
e 40 78
e 40 82
e 40 88
e 40 90
e 40 99
e 40 100
e 41 50
e 41 55
e 41 58
e 41 61
e 41 68
e 41 70
e 41 79
e 41 85
e 41 88
e 41 89
e 41 92
e 41 93
e 41 94
e 41 97
e 41 98
e 41 100
e 42 43
e 42 45
e 42 48
e 42 52
e 42 53
e 42 59
e 42 61
e 42 70
e 42 75
e 42 76
e 42 78
e 42 82
e 42 84
e 42 88
e 42 89
e 42 94
e 42 96
e 42 98
e 43 44
e 43 45
e 43 46
e 43 47
e 43 48
e 43 49
e 43 50
e 43 54
e 43 56
e 43 57
e 43 60
e 43 65
e 43 67
e 43 68
e 43 75
e 43 77
e 43 78
e 43 84
e 43 85
e 43 86
e 43 91
e 43 95
e 43 96
e 43 99
e 44 45
e 44 53
e 44 59
e 44 60
e 44 61
e 44 62
e 44 65
e 44 66
e 44 68
e 44 70
e 44 73
e 44 75
e 44 78
e 44 83
e 44 84
e 44 86
e 44 89
e 44 91
e 44 100
e 45 48
e 45 51
e 45 53
e 45 57
e 45 60
e 45 61
e 45 62
e 45 63
e 45 65
e 45 68
e 45 69
e 45 72
e 45 81
e 45 82
e 45 83
e 45 84
e 45 85
e 45 86
e 45 88
e 45 90
e 45 91
e 45 94
e 45 98
e 46 48
e 46 49
e 46 52
e 46 53
e 46 55
e 46 58
e 46 61
e 46 62
e 46 66
e 46 68
e 46 72
e 46 73
e 46 75
e 46 77
e 46 81
e 46 82
e 46 85
e 46 87
e 47 50
e 47 54
e 47 55
e 47 62
e 47 64
e 47 66
e 47 72
e 47 73
e 47 77
e 47 78
e 47 79
e 47 81
e 47 82
e 47 86
e 47 90
e 47 95
e 47 96
e 47 97
e 47 98
e 48 50
e 48 52
e 48 55
e 48 58
e 48 59
e 48 63
e 48 64
e 48 66
e 48 68
e 48 69
e 48 72
e 48 75
e 48 79
e 48 80
e 48 83
e 48 84
e 48 93
e 48 96
e 48 98
e 48 100
e 49 54
e 49 58
e 49 59
e 49 62
e 49 66
e 49 73
e 49 81
e 49 84
e 49 86
e 49 87
e 49 95
e 49 97
e 49 100
e 50 51
e 50 55
e 50 59
e 50 63
e 50 72
e 50 74
e 50 75
e 50 78
e 50 81
e 50 85
e 50 86
e 50 89
e 50 90
e 50 91
e 50 93
e 50 94
e 50 96
e 50 97
e 50 98
e 51 58
e 51 63
e 51 67
e 51 71
e 51 72
e 51 73
e 51 77
e 51 80
e 51 82
e 51 86
e 51 93
e 51 94
e 52 56
e 52 62
e 52 65
e 52 71
e 52 72
e 52 76
e 52 80
e 52 82
e 52 84
e 52 88
e 52 95
e 52 98
e 52 100
e 53 54
e 53 57
e 53 61
e 53 63
e 53 64
e 53 65
e 53 74
e 53 76
e 53 78
e 53 79
e 53 81
e 53 83
e 53 89
e 53 95
e 53 98
e 54 55
e 54 60
e 54 61
e 54 65
e 54 70
e 54 74
e 54 77
e 54 81
e 54 82
e 54 83
e 54 84
e 54 89
e 54 90
e 54 92
e 54 94
e 54 96
e 54 97
e 54 99
e 55 59
e 55 61
e 55 67
e 55 68
e 55 73
e 55 76
e 55 78
e 55 79
e 55 84
e 55 85
e 55 86
e 55 87
e 55 88
e 55 89
e 55 91
e 55 94
e 55 97
e 55 100
e 56 58
e 56 62
e 56 63
e 56 64
e 56 67
e 56 68
e 56 74
e 56 82
e 56 84
e 56 88
e 56 89
e 56 90
e 56 96
e 56 99
e 57 58
e 57 63
e 57 64
e 57 66
e 57 70
e 57 72
e 57 73
e 57 74
e 57 76
e 57 77
e 57 80
e 57 82
e 57 84
e 57 87
e 57 88
e 57 89
e 57 91
e 57 94
e 57 97
e 57 100
e 58 61
e 58 63
e 58 66
e 58 67
e 58 70
e 58 71
e 58 72
e 58 82
e 58 83
e 58 84
e 58 86
e 58 89
e 58 91
e 58 92
e 58 93
e 58 95
e 58 96
e 59 62
e 59 63
e 59 68
e 59 70
e 59 71
e 59 72
e 59 77
e 59 80
e 59 83
e 59 85
e 59 89
e 59 91
e 59 97
e 59 99
e 59 100
e 60 64
e 60 67
e 60 69
e 60 71
e 60 72
e 60 75
e 60 79
e 60 82
e 60 89
e 60 93
e 60 94
e 60 98
e 60 99
e 60 100
e 61 66
e 61 73
e 61 74
e 61 78
e 61 79
e 61 83
e 61 86
e 61 87
e 61 93
e 61 94
e 61 97
e 61 99
e 61 100
e 62 63
e 62 67
e 62 68
e 62 71
e 62 73
e 62 75
e 62 77
e 62 82
e 62 84
e 62 85
e 62 88
e 62 91
e 62 94
e 63 65
e 63 67
e 63 68
e 63 77
e 63 82
e 63 83
e 63 84
e 63 85
e 63 87
e 63 89
e 63 90
e 63 92
e 63 96
e 63 97
e 63 99
e 64 65
e 64 66
e 64 68
e 64 73
e 64 75
e 64 79
e 64 85
e 64 87
e 64 88
e 64 94
e 64 99
e 65 66
e 65 75
e 65 77
e 65 80
e 65 81
e 65 88
e 65 94
e 65 97
e 65 100
e 66 67
e 66 71
e 66 73
e 66 76
e 66 87
e 66 91
e 66 96
e 67 70
e 67 71
e 67 72
e 67 77
e 67 78
e 67 80
e 67 90
e 67 96
e 67 97
e 67 98
e 67 99
e 68 69
e 68 71
e 68 73
e 68 74
e 68 76
e 68 83
e 68 85
e 68 86
e 68 87
e 68 88
e 68 89
e 68 92
e 68 98
e 69 71
e 69 72
e 69 73
e 69 75
e 69 78
e 69 81
e 69 86
e 69 87
e 69 89
e 69 97
e 69 99
e 70 74
e 70 76
e 70 78
e 70 80
e 70 83
e 70 87
e 70 90
e 70 91
e 70 96
e 71 73
e 71 74
e 71 79
e 71 81
e 71 83
e 71 85
e 71 89
e 71 92
e 71 95
e 71 97
e 71 98
e 71 100
e 72 77
e 72 79
e 72 81
e 72 84
e 72 86
e 72 87
e 72 88
e 72 89
e 72 98
e 72 100
e 73 74
e 73 77
e 73 79
e 73 81
e 73 82
e 73 84
e 73 85
e 73 91
e 73 92
e 73 98
e 73 99
e 73 100
e 74 76
e 74 80
e 74 81
e 74 83
e 74 87
e 74 89
e 74 91
e 74 94
e 74 95
e 75 80
e 75 83
e 75 84
e 75 85
e 75 88
e 75 90
e 75 92
e 75 93
e 75 97
e 75 99
e 76 78
e 76 83
e 76 84
e 76 86
e 76 87
e 76 91
e 76 93
e 76 94
e 76 98
e 76 100
e 77 79
e 77 86
e 77 88
e 77 91
e 77 94
e 77 95
e 77 99
e 77 100
e 78 81
e 78 83
e 78 86
e 78 89
e 78 92
e 78 93
e 78 94
e 78 95
e 78 98
e 78 99
e 79 83
e 79 84
e 79 92
e 79 94
e 79 97
e 79 100
e 80 84
e 80 87
e 80 91
e 80 93
e 80 94
e 80 96
e 81 83
e 81 87
e 81 92
e 82 90
e 82 92
e 82 93
e 82 98
e 83 87
e 83 89
e 83 90
e 83 91
e 83 95
e 83 99
e 83 100
e 84 89
e 84 90
e 84 93
e 84 97
e 85 86
e 85 88
e 85 89
e 85 97
e 86 91
e 86 93
e 86 94
e 86 96
e 86 97
e 87 91
e 87 98
e 87 100
e 88 90
e 88 92
e 88 95
e 88 96
e 88 99
e 89 91
e 89 98
e 90 94
e 90 97
e 90 98
e 91 93
e 91 96
e 91 98
e 92 98
e 92 100
e 93 96
e 93 99
e 93 100
e 94 98
e 95 96
e 95 97
e 96 100
e 97 100
e 98 99
